700741
89,185,170,149,169,141,3,20,216,152,128,32,223,37,202,5,103,229,211,44,57,138,10,196,142,75,56,28,173,199,197,113,9,200,64,153,163,213,45,124,226,18,133,110,47,224,46,16,12,193,164,13,109,119,96,7,29,63,43,219,175,222,4,155,210,144,143,25,21,90,95,67,8,165,100,183,115,88,106,195,178,191,36,33,160,204,74,214,77,27,49,107,34,86,150,54,61,101,129,80,39,168,26,111,154,132,228,93,35,182,116,19,209,6,0,71,62,31,117,48,70,139,161,134,82,156,73,66,38,206,146,162,126,42,30,177,198,22,158,207,184,188,15,59,136,14,137,2,68,225,176,50,97,41,159,112,72,208,121,151,190,125,69,85,118,194,192,83,94,78,166,84,187,180,135,205,217,172,123,130,147,181,60,122,24,79,131,51,220,58,212,92,167,203,171,1,114,148,157,120,221,40,127,140,23,215,99,52,91,17,55,53,174,104,201,98,189,65,218,105,76,179,81,102,186,11,145,87,227,108
